RT is False
Default write of storage_offers_DA.csv just to have a file (but constraint should be inactive)
Reading model...
...model read.
creating competitive generators file...
...competitive generators recorded.
Loading data...
.. day-ahead data with real-time VRE data read.
Compiling instance...
...instance created.
Creating Offer Mitigation (model will solve as dispatch if TRUE)...
Solving...

Welcome to IBM(R) ILOG(R) CPLEX(R) Interactive Optimizer 12.9.0.0
  with Simplex, Mixed Integer & Barrier Optimizers
5725-A06 5725-A29 5724-Y48 5724-Y49 5724-Y54 5724-Y55 5655-Y21
Copyright IBM Corp. 1988, 2019.  All Rights Reserved.

Type 'help' for a list of available commands.
Type 'help' followed by a command name for more
information on commands.

CPLEX> Logfile 'cplex.log' closed.
Logfile 'C:\Users\Luke\Desktop\test919\logs\tmpgt37zasc.cplex.log' open.
CPLEX> New value for parallel optimization mode: -1
CPLEX> New value for emphasis for MIP optimization: 1
CPLEX> New value for mixed integer optimality gap tolerance: 0.01
CPLEX> New value for integrality tolerance: 1e-12
CPLEX> New value for deterministic time limit in ticks: 75000
CPLEX> Problem 'C:\Users\Luke\Desktop\test919\logs\tmpcs94x2ko.pyomo.lp' read.
Read time = 0.05 sec. (3.05 ticks)
CPLEX> Problem name         : C:\Users\Luke\Desktop\test919\logs\tmpcs94x2ko.pyomo.lp
Objective sense      : Minimize
Variables            :   26085  [Nneg: 1,  Box: 21620,  Free: 4464]
Objective nonzeros   :    2496
Linear constraints   :   27563  [Less: 14006,  Greater: 4416,  Equal: 9141]
  Nonzeros           :   90683
  RHS nonzeros       :   12271

Variables            : Min LB: -5000.000        Max UB: 1000000.       
Objective nonzeros   : Min   : 15.73158         Max   : 124.0997       
Linear constraints   :
  Nonzeros           : Min   : 0.8500000        Max   : 3000.000       
  RHS nonzeros       : Min   : 0.008333333      Max   : 5000.000       
CPLEX> CPXPARAM_Parallel                                -1
CPXPARAM_Emphasis_MIP                            1
CPXPARAM_DetTimeLimit                            75000
CPXPARAM_MIP_Tolerances_MIPGap                   0.01
CPXPARAM_MIP_Tolerances_Integrality              9.9999999999999998e-13
Parallel mode: opportunistic, using up to 12 threads for concurrent optimization.
Tried aggregator 1 time.
LP Presolve eliminated 21384 rows and 15495 columns.
Aggregator did 755 substitutions.
Reduced LP has 5424 rows, 9835 columns, and 32576 nonzeros.
Presolve time = 0.05 sec. (30.59 ticks)
Symmetry aggregator did 5659 additional substitutions.
Initializing dual steep norms . . .

Iteration log . . .
Iteration:     1   Dual objective     =             0.000000
Perturbation started.
Iteration:   101   Dual objective     =             0.000000
Iteration:   337   Dual objective     =            48.473049
Iteration:   528   Dual objective     =            60.862870
Iteration:   751   Dual objective     =            61.224282
Iteration:   930   Dual objective     =        166213.113290
Iteration:  1101   Dual objective     =        177248.760838
Removing perturbation.

Dual crossover.
  Dual:  Fixing 1 variable.
        0 DMoves:  Infeasibility  2.84217094e-14  Objective  1.77694728e+05
  Dual:  Pushed 0, exchanged 1.
  Primal:  Fixing 7 variables.
        6 PMoves:  Infeasibility  2.12139639e-09  Objective  1.77694728e+05
        0 PMoves:  Infeasibility  2.12139639e-09  Objective  1.77694728e+05
  Primal:  Pushed 7, exchanged 0.

Dual simplex solved model.


Dual simplex - Optimal:  Objective =  1.7769472834e+05
Solution time =    0.11 sec.  Iterations = 1299 (0)
Deterministic time = 78.60 ticks  (721.07 ticks/sec)

CPLEX> Solution written to file 'C:\Users\Luke\Desktop\test919\logs\tmpdrcd_jv5.cplex.sol'.
CPLEX> Exporting results... 
...storage offer mitigation file created
Converting model to MPEC...
...converted
NOTE: initial MIP solve with only storage competitive to get feasible solution
Solving...

Welcome to IBM(R) ILOG(R) CPLEX(R) Interactive Optimizer 12.9.0.0
  with Simplex, Mixed Integer & Barrier Optimizers
5725-A06 5725-A29 5724-Y48 5724-Y49 5724-Y54 5724-Y55 5655-Y21
Copyright IBM Corp. 1988, 2019.  All Rights Reserved.

Type 'help' for a list of available commands.
Type 'help' followed by a command name for more
information on commands.

CPLEX> Logfile 'cplex.log' closed.
Logfile 'C:\Users\Luke\Desktop\test919\logs\tmpg5mqoexv.cplex.log' open.
CPLEX> New value for parallel optimization mode: -1
CPLEX> New value for emphasis for MIP optimization: 1
CPLEX> New value for mixed integer optimality gap tolerance: 0.01
CPLEX> New value for integrality tolerance: 1e-12
CPLEX> New value for deterministic time limit in ticks: 75000
CPLEX> Problem 'C:\Users\Luke\Desktop\test919\logs\tmpz_u4kkgs.pyomo.lp' read.
Read time = 0.19 sec. (13.88 ticks)
CPLEX> Problem name         : C:\Users\Luke\Desktop\test919\logs\tmpz_u4kkgs.pyomo.lp
Objective sense      : Maximize
Variables            :   53809  [Nneg: 1,  Box: 22004,  Free: 4464,
                                 Binary: 27340]
Objective nonzeros   :    9029
Linear constraints   :  123253  [Less: 41346,  Greater: 59096,  Equal: 22811]
  Nonzeros           :  293217
  RHS nonzeros       :   67491

Variables            : Min LB: -5000.000        Max UB: 1000000.       
Objective nonzeros   : Min   : 0.008333333      Max   : 2500.000       
Linear constraints   :
  Nonzeros           : Min   : 0.008333333      Max   : 1000000.       
  RHS nonzeros       : Min   : 0.008333333      Max   : 1000000.       
CPLEX> CPXPARAM_Parallel                                -1
CPXPARAM_Emphasis_MIP                            1
CPXPARAM_DetTimeLimit                            75000
CPXPARAM_MIP_Tolerances_MIPGap                   0.01
CPXPARAM_MIP_Tolerances_Integrality              9.9999999999999998e-13
Tried aggregator 4 times.
MIP Presolve eliminated 88682 rows and 18985 columns.
MIP Presolve added 3376 rows and 0 columns.
MIP Presolve modified 24815 coefficients.
Aggregator did 12973 substitutions.
Reduced MIP has 24974 rows, 21295 columns, and 71850 nonzeros.
Reduced MIP has 8415 binaries, 0 generals, 0 SOSs, and 0 indicators.
Presolve time = 0.25 sec. (192.40 ticks)
Probing fixed 386 vars, tightened 3999 bounds.
Probing time = 0.05 sec. (19.01 ticks)
Tried aggregator 2 times.
MIP Presolve eliminated 869 rows and 775 columns.
MIP Presolve modified 3033 coefficients.
Aggregator did 35 substitutions.
Reduced MIP has 24070 rows, 20485 columns, and 69227 nonzeros.
Reduced MIP has 8028 binaries, 0 generals, 0 SOSs, and 0 indicators.
Presolve time = 0.11 sec. (89.87 ticks)
Probing fixed 0 vars, tightened 256 bounds.
Probing time = 0.11 sec. (22.52 ticks)
Clique table members: 44306.
MIP emphasis: integer feasibility.
MIP search method: dynamic search.
Parallel mode: opportunistic, using up to 12 threads.
Root relaxation solution time = 0.41 sec. (635.15 ticks)

        Nodes                                         Cuts/
   Node  Left     Objective  IInf  Best Integer    Best Bound    ItCnt     Gap

      0     0     3942.1232   170                   3942.1232     5448         
      0     0     3942.1232     2                    Cuts: 15     5453         
      0     0     3942.1232     1                     Cuts: 3     5455         
      0     5     1129.7907     5                   3941.2121     5496         
Elapsed time = 3.01 sec. (1716.88 ticks, tree = 0.02 MB, solutions = 0)
    254    91    -1392.0510     3                   3914.0599     7491         
    471   204  -206172.1946    47                   3914.0599    12547         
    667   336    infeasible                         3914.0599    18029         
    861   493     3893.6351     2                   3914.0599    23553         
   1107   592     3913.1619     4                   3914.0599    26248         
   1337   791     3912.8626     2                   3914.0599    33462         
   1563  1023     3912.2640     3                   3914.0599    40937         
   1778  1003   -80288.7872    24                   3914.0599    40980         
   1968  1183     3818.8786     1                   3914.0599    45543         
*  2150+  409                         3687.5186     3914.0599             6.14%
Elapsed time = 12.19 sec. (4065.35 ticks, tree = 10.05 MB, solutions = 1)
*  2300   416      integral     0     3703.2113     3914.0599    51515    5.69%
   3112   371     3855.3828     3     3703.2113     3914.0599    58976    5.69%
   4264   600     3796.1439     3     3703.2113     3914.0599    64333    5.69%
   5311   741        cutoff           3703.2113     3914.0599    65138    5.69%
   5699  1008     3784.0980     5     3703.2113     3914.0599    66457    5.69%
   5717  2142     3911.3660     1     3703.2113     3913.6786    78519    5.68%
   7528   686     3889.8295     2     3703.2113     3912.9578    85942    5.66%
  10156  1527     3745.8665     7     3703.2113     3912.9578    99731    5.66%
  12582  2097        cutoff           3703.2113     3912.4182   113003    5.65%
  14955  2601    infeasible           3703.2113     3912.4182   129308    5.65%
  17136  2810     3824.6816     9     3703.2113     3912.4182   138327    5.65%
Elapsed time = 41.19 sec. (13964.81 ticks, tree = 10.15 MB, solutions = 2)
  20038  3104     3804.8508     8     3703.2113     3912.4182   164506    5.65%
  23009  3319        cutoff           3703.2113     3911.3660   175995    5.62%
  25002  3507    infeasible           3703.2113     3911.3660   190707    5.62%
  27976  3540        cutoff           3703.2113     3911.3660   199287    5.62%
  30867  3707        cutoff           3703.2113     3911.3660   221122    5.62%
  32421  3798        cutoff           3703.2113     3911.3660   242705    5.62%
  35259  3683     3893.9137     3     3703.2113     3911.3660   251765    5.62%
  38431  3516        cutoff           3703.2113     3911.3660   263194    5.62%
  41707  3444     3855.6472     4     3703.2113     3911.3660   265177    5.62%
  44399  2900     3745.8661     6     3703.2113     3911.3660   286869    5.62%
Elapsed time = 72.61 sec. (23505.14 ticks, tree = 8.87 MB, solutions = 2)
  46536  1602     3802.5758     8     3703.2113     3910.9689   319241    5.61%
  48274  1316     3810.6940     7     3703.2113     3889.8295   327959    5.04%
  49839   998     3757.6401     8     3703.2113     3878.4763   336593    4.73%
  50483   445     3752.0711     8     3703.2113     3878.4763   350869    4.73%

GUB cover cuts applied:  1
Clique cuts applied:  1
Cover cuts applied:  7
Implied bound cuts applied:  47
Flow cuts applied:  16
Mixed integer rounding cuts applied:  14
Gomory fractional cuts applied:  10

Root node processing (before b&c):
  Real time             =    2.66 sec. (1688.79 ticks)
Parallel b&c, 12 threads:
  Real time             =   75.48 sec. (25678.16 ticks)
  Sync time (average)   =    0.85 sec.
  Wait time (average)   =    0.02 sec.
                          ------------
Total (root+branch&cut) =   78.14 sec. (27366.95 ticks)

Solution pool: 2 solutions saved.

MIP - Integer optimal, tolerance (0.01/1e-06):  Objective =  3.7032113233e+03
Current MIP best bound =  3.7395993391e+03 (gap = 36.388, 0.98%)
Solution time =   78.14 sec.  Iterations = 354845  Nodes = 50494 (372)
Deterministic time = 27367.11 ticks  (350.23 ticks/sec)

CPLEX> Incumbent solution written to file 'C:\Users\Luke\Desktop\test919\logs\tmp30dzxl2f.cplex.sol'.
CPLEX> NOTE: no warmstart specified for MIP iteration, default behavior is true
NOTE: resolving with all competitive generators using storage-only solution to warmstart
Solving...

Welcome to IBM(R) ILOG(R) CPLEX(R) Interactive Optimizer 12.9.0.0
  with Simplex, Mixed Integer & Barrier Optimizers
5725-A06 5725-A29 5724-Y48 5724-Y49 5724-Y54 5724-Y55 5655-Y21
Copyright IBM Corp. 1988, 2019.  All Rights Reserved.

Type 'help' for a list of available commands.
Type 'help' followed by a command name for more
information on commands.

CPLEX> Logfile 'cplex.log' closed.
Logfile 'C:\Users\Luke\Desktop\test919\logs\tmpefrrh7z4.cplex.log' open.
CPLEX> New value for parallel optimization mode: -1
CPLEX> New value for emphasis for MIP optimization: 1
CPLEX> New value for mixed integer optimality gap tolerance: 0.01
CPLEX> New value for integrality tolerance: 1e-12
CPLEX> New value for deterministic time limit in ticks: 75000
CPLEX> Problem 'C:\Users\Luke\Desktop\test919\logs\tmpfwxu50vy.pyomo.lp' read.
Read time = 0.19 sec. (13.91 ticks)
CPLEX> MIP start file 'C:\Users\Luke\Desktop\test919\logs\tmpelsvkhgr.cplex.mst' read.
CPLEX> Problem name         : C:\Users\Luke\Desktop\test919\logs\tmpfwxu50vy.pyomo.lp
Objective sense      : Maximize
Variables            :   54529  [Nneg: 1,  Box: 22724,  Free: 4464,
                                 Binary: 27340]
Objective nonzeros   :    9725
Linear constraints   :  123253  [Less: 41346,  Greater: 59096,  Equal: 22811]
  Nonzeros           :  293217
  RHS nonzeros       :   67491

Variables            : Min LB: -5000.000        Max UB: 1000000.       
Objective nonzeros   : Min   : 0.008333333      Max   : 2500.000       
Linear constraints   :
  Nonzeros           : Min   : 0.008333333      Max   : 1000000.       
  RHS nonzeros       : Min   : 0.008333333      Max   : 1000000.       
CPLEX> CPXPARAM_Parallel                                -1
CPXPARAM_Emphasis_MIP                            1
CPXPARAM_DetTimeLimit                            75000
CPXPARAM_MIP_Tolerances_MIPGap                   0.01
CPXPARAM_MIP_Tolerances_Integrality              9.9999999999999998e-13
Warning:  No solution found from 1 MIP starts.
Retaining values of one MIP start for possible repair.
Tried aggregator 4 times.
MIP Presolve eliminated 88682 rows and 19705 columns.
MIP Presolve added 3376 rows and 0 columns.
MIP Presolve modified 24815 coefficients.
Aggregator did 12973 substitutions.
Reduced MIP has 24974 rows, 21295 columns, and 71850 nonzeros.
Reduced MIP has 8415 binaries, 0 generals, 0 SOSs, and 0 indicators.
Presolve time = 0.27 sec. (192.81 ticks)
Probing fixed 386 vars, tightened 3999 bounds.
Probing time = 0.06 sec. (19.01 ticks)
Tried aggregator 2 times.
MIP Presolve eliminated 869 rows and 775 columns.
MIP Presolve modified 3033 coefficients.
Aggregator did 35 substitutions.
Reduced MIP has 24070 rows, 20485 columns, and 69227 nonzeros.
Reduced MIP has 8028 binaries, 0 generals, 0 SOSs, and 0 indicators.
Presolve time = 0.11 sec. (89.88 ticks)
Probing fixed 0 vars, tightened 256 bounds.
Probing time = 0.13 sec. (22.52 ticks)
Clique table members: 44306.
MIP emphasis: integer feasibility.
MIP search method: dynamic search.
Parallel mode: opportunistic, using up to 12 threads.
Root relaxation solution time = 0.49 sec. (684.46 ticks)

        Nodes                                         Cuts/
   Node  Left     Objective  IInf  Best Integer    Best Bound    ItCnt     Gap

      0     0    55731.9368   177                  55731.9368     5895         
      0     0    54441.6787    68                    Cuts: 44     5963         
      0     0    54272.8996    69                    Cuts: 24     6000         
      0     0    54165.0283    63                    Cuts: 13     6014         
Repair heuristic found nothing.
      0     8    46607.1465    55                     Cuts: 6     6062         
Elapsed time = 3.08 sec. (1893.63 ticks, tree = 0.02 MB, solutions = 0)
    226   189    infeasible                        52532.2470     8388         
    501   306    21148.9359    18                  52532.2470     9863         
    808   615    27957.7476    13                  52532.2470    13800         
   1010   686    24637.4789    21                  52532.2470    16503         
   1244   902    infeasible                        52532.2470    23580         
   1489   918   -80768.8933    44                  49982.9162    24857         
   1710  1082    16041.1410    30                  49982.9162    29389         
*  1739  1173      integral     0    30941.8373    49982.9162    31446   61.54%
   2011   458    32810.3119    39    30941.8373    49964.5210    34695   61.48%
   3286   668        cutoff          30941.8373    48303.0759    45400   56.11%
Elapsed time = 14.77 sec. (4791.80 ticks, tree = 3.46 MB, solutions = 1)
   4591   535        cutoff          30941.8373    48303.0759    55527   56.11%
   5812   204    34094.6446    17    30941.8373    34094.6446    65359   10.19%

Cover cuts applied:  22
Implied bound cuts applied:  6
Flow cuts applied:  52
Mixed integer rounding cuts applied:  1
Gomory fractional cuts applied:  1

Root node processing (before b&c):
  Real time             =    2.69 sec. (1864.47 ticks)
Parallel b&c, 12 threads:
  Real time             =   19.58 sec. (5111.34 ticks)
  Sync time (average)   =    0.40 sec.
  Wait time (average)   =    0.00 sec.
                          ------------
Total (root+branch&cut) =   22.27 sec. (6975.81 ticks)

Solution pool: 1 solution saved.

MIP - Integer optimal, tolerance (0.01/1e-06):  Objective =  3.0941837330e+04
Current MIP best bound =  3.1241647888e+04 (gap = 299.811, 0.97%)
Solution time =   22.27 sec.  Iterations = 67900  Nodes = 5911 (173)
Deterministic time = 6975.97 ticks  (313.30 ticks/sec)

CPLEX> Incumbent solution written to file 'C:\Users\Luke\Desktop\test919\logs\tmpinwxz_f6.cplex.sol'.
CPLEX> Exporting results... 
